1
1000
249
499 1
494 1
493 1
492 1
492 1
489 1
488 1
487 1
486 1
485 1
485 1
483 1
481 1
481 1
480 1
477 1
477 1
477 1
475 1
475 1
474 1
473 1
472 1
471 1
471 1
465 1
461 1
461 1
461 1
459 1
459 1
458 1
457 1
455 1
452 1
450 1
449 1
448 1
445 1
443 1
441 1
440 1
437 1
436 1
436 1
434 1
424 1
422 1
418 1
416 1
415 1
410 1
409 1
408 1
405 1
402 1
400 1
399 1
398 1
398 1
397 1
396 1
395 1
393 1
393 1
390 1
389 1
389 1
385 1
383 1
383 1
377 1
377 1
374 1
374 1
374 1
373 1
371 1
366 1
366 1
365 1
363 1
362 1
362 1
360 1
359 1
358 1
357 1
354 1
352 1
352 1
352 1
350 1
349 1
348 1
347 1
345 1
339 1
330 1
329 1
326 1
326 1
324 1
324 1
323 1
321 1
319 1
318 1
315 1
313 1
313 1
312 1
310 1
309 1
308 1
307 1
305 1
305 1
305 1
304 1
303 1
303 1
302 1
302 1
301 1
300 1
300 1
299 1
296 1
296 1
296 1
295 1
294 1
294 1
294 1
293 1
292 1
292 1
291 1
290 1
290 1
289 1
288 1
288 1
287 1
287 1
287 1
284 1
284 1
284 1
281 1
281 1
280 1
280 1
279 1
279 1
279 1
279 1
278 1
277 1
277 1
276 1
275 1
275 1
275 1
274 1
274 1
274 1
272 1
272 1
271 1
271 1
270 1
269 1
269 1
269 1
269 1
268 1
267 1
267 1
267 1
266 1
266 1
266 1
265 1
265 1
265 1
265 1
265 1
264 1
264 1
264 1
264 1
263 1
263 1
263 1
263 1
262 1
261 1
261 1
261 1
261 1
261 1
261 1
261 1
260 1
260 1
260 1
260 1
260 1
260 1
260 1
259 1
258 1
258 1
258 1
257 1
257 1
257 1
257 1
256 1
255 1
255 1
255 1
255 1
254 1
254 1
254 1
254 1
253 1
253 1
252 1
252 1
252 1
251 1
251 1
251 1
251 1
251 1
251 1
251 1
250 1
250 1
250 1
250 1
250 1
250 1
250 1
250 1
